14
WF centres extracted from wout Final State block (regenerated)
X 1.904992000 1.904992000 1.904992000
X 1.904992000 1.904992000 1.904992000
X 1.904992000 1.904992000 1.904992000
X 1.904993000 1.904992000 1.904992000
X 1.904992000 1.904992000 1.904992000
X 1.904991000 1.904994000 -0.000000000
X 1.904992000 1.904992000 -0.000000000
X 1.904992000 1.904992000 0.000000000
X 0.000000000 1.904993000 1.904992000
X -0.000000000 1.904992000 1.904993000
X 0.000000000 1.904992000 1.904992000
X 1.904992000 -0.000000000 1.904992000
X 1.904992000 0.000000000 1.904992000
X 1.904993000 -0.000001000 1.904992000
